sat
(:added-eqs                       248
 :arith-eq-adapter                87
 :arith-assume-eqs                36
 :arith-bound-propagations-lp     19
 :arith-conflicts                 39
 :arith-diseq                     72
 :arith-fixed-eqs                 74
 :arith-gcd-calls                 3
 :arith-grobner-calls             22
 :arith-grobner-conflicts         3
 :arith-horner-calls              9
 :arith-horner-cross-nested-forms 320
 :arith-lower                     180
 :arith-make-feasible             215
 :arith-max-columns               83
 :arith-max-rows                  46
 :arith-nla-add-bounds            6
 :arith-nla-lemmas                21
 :arith-nla-propagate-bounds      4
 :arith-nla-propagate-eq          10
 :arith-nra-calls                 18
 :arith-offset-eqs                37
 :arith-patches                   3
 :arith-patches-success           3
 :arith-upper                     183
 :binary-propagations             56
 :conflicts                       44
 :decisions                       208
 :del-clause                      182
 :final-checks                    51
 :interface-eqs                   18
 :max-memory                      18.61
 :memory                          17.53
 :minimized-lits                  7
 :mk-bool-var                     316
 :mk-clause                       276
 :mk-clause-binary                57
 :nlsat-conflicts                 333
 :nlsat-decisions                 21
 :nlsat-propagations              4285
 :nlsat-restarts                  6
 :nlsat-stages                    1186
 :num-allocs                      1715319
 :num-checks                      1
 :propagations                    197
 :rlimit-count                    62792
 :time                            0.03
 :total-time                      0.03)
